p tw 136 147
1 2
2 49
3 14
4 5
5 6
6 7
7 8
7 114
8 9
9 10
10 11
11 12
12 13
13 15
13 19
14 25
15 16
16 17
17 18
17 19
18 19
19 20
20 21
21 22
22 23
23 24
24 26
25 36
26 27
27 28
28 29
29 30
30 31
31 32
32 33
33 34
34 35
35 37
35 45
36 43
37 38
38 39
39 40
40 41
41 42
43 44
44 45
45 46
46 47
47 48
48 50
49 60
50 51
51 52
52 53
53 54
54 55
54 58
55 56
56 57
57 58
57 31
58 59
59 61
60 71
61 62
62 63
63 64
64 65
65 66
66 67
67 68
68 69
68 31
69 70
70 72
71 82
72 73
73 74
74 75
75 76
76 77
76 31
77 78
78 79
79 80
80 81
81 83
82 93
83 84
84 85
85 86
86 87
86 112
87 88
88 89
89 90
90 91
91 92
92 94
93 104
94 95
95 96
96 97
97 98
98 99
99 100
100 101
101 102
102 103
103 105
104 115
105 106
106 107
107 108
107 100
108 109
109 110
110 111
111 11
112 113
113 114
114 116
115 126
116 117
117 118
118 119
119 120
120 121
121 122
121 4
122 123
123 124
124 125
125 127
125 131
126 3
127 128
128 129
129 130
130 131
131 132
132 133
133 134
134 135
135 136
136 4
